Pt1Se2                                  
   1.00000000000000     
     1.8858181117257999   -3.2661734308082599   -0.0000570443246400
     1.8858181117257999    3.2661734308082599    0.0000570443246400
     0.0000000000000000    0.0000538431166500    5.2620735785007202
   Pt   Se
     1     2
Direct
  0.0000000000000000  0.0000000000000000  0.0000000000000000
  0.3333322813579613  0.6666677186420387  0.2469739513823583
  0.6666677186420387  0.3333322813579613  0.7530260486176417
 
  0.00000000E+00  0.00000000E+00  0.00000000E+00
  0.00000000E+00  0.00000000E+00  0.00000000E+00
  0.00000000E+00  0.00000000E+00  0.00000000E+00
