ALGO = Normal
EDIFF = 1e-03
ENCUT = 350
ISMEAR = 0
SIGMA = 0.1
NSW = 0
LREAL=Auto
IBRION=-1
LWAVE=.T.
LCHARG=.T.
NPAR=4
ISIF=2
SYMPREC=1E-04
LORBIT=11
ICHARG=11
