Pt1Se2   
1.0
 1.88581811172580  -3.26617343080826  -0.00005704432464
 1.88581811172580   3.26617343080826   0.00005704432464
 0.00000000000000   0.00005384311665   5.26207357850072
    Pt Se
    1 2
Direct
  -0.00000000000000    0.00000000000000   -0.00000000000000   
  0.33333228135796    0.66666771864204    0.24697395138236   
  0.66666771864204    0.33333228135796    0.75302604861764  
