3D\Atomistic\(1\1\0)                    
   1.00000000000000     
     5.9047353762585724    0.0000000000000000    0.0000000000000000
     0.0000000000000000   12.6276267462991090    0.0000000000000000
     0.0000000000000000    0.0000000000000000   29.0433006286999991
   H    Mg
    64    32
Selective dynamics
Direct
  0.0000000000000000  0.0000000000000000  0.4356116655126527   T   T   T
  0.0000000000000000  0.2500000000981899  0.3224062693607266   T   T   T
  0.0000000000000000  0.0000000000000000  0.2127100224929421   F   F   F
  0.0000000000000000  0.2500000000981899  0.1031299867839479   F   F   F
  0.0000000000000000  0.0000000000000000  0.3474441465836193   T   T   T
  0.0000000000000000  0.2500000000981899  0.2363799820057579   F   F   F
  0.0000000000000000  0.0000000000000000  0.1268000034528072   F   F   F
  0.0000000000000000  0.2500000000981899  0.0172200207680859   F   F   F
  0.7499999807848852  0.3440127631550567  0.3949295104620489   T   T   T
  0.7499999807848852  0.0979999962178368  0.2793400155760182   F   F   F
  0.7499999807848852  0.3480000057419801  0.1697599877862359   F   F   F
  0.7499999807848852  0.0979999962178368  0.0601699941869924   F   F   F
  0.7499999807848852  0.1559872370413160  0.3949295104620489   T   T   T
  0.7499999807848852  0.4020000134044963  0.2793400155760182   F   F   F
  0.7499999807848852  0.1519999944543926  0.1697599877862359   F   F   F
  0.7499999807848852  0.4020000134044963  0.0601699941869924   F   F   F
  0.4999999999252509  0.0000000000000000  0.4356116655126527   T   T   T
  0.4999999999252509  0.2500000000981899  0.3224062693607266   T   T   T
  0.4999999999252509  0.0000000000000000  0.2127100224929421   F   F   F
  0.4999999999252509  0.2500000000981899  0.1031299867839479   F   F   F
  0.4999999999252509  0.0000000000000000  0.3474441465836193   T   T   T
  0.4999999999252509  0.2500000000981899  0.2363799820057579   F   F   F
  0.4999999999252509  0.0000000000000000  0.1268000034528072   F   F   F
  0.4999999999252509  0.2500000000981899  0.0172200207680859   F   F   F
  0.2499999991320578  0.3440127631550567  0.3949295104620489   T   T   T
  0.2499999991320578  0.0979999962178368  0.2793400155760182   F   F   F
  0.2499999991320578  0.3480000057419801  0.1697599877862359   F   F   F
  0.2499999991320578  0.0979999962178368  0.0601699941869924   F   F   F
  0.2499999991320578  0.1559872370413160  0.3949295104620489   T   T   T
  0.2499999991320578  0.4020000134044963  0.2793400155760182   F   F   F
  0.2499999991320578  0.1519999944543926  0.1697599877862359   F   F   F
  0.2499999991320578  0.4020000134044963  0.0601699941869924   F   F   F
  0.0000000000000000  0.5000000001963727  0.4356116655126527   T   T   T
  0.0000000000000000  0.7499999814426417  0.3224062693607266   T   T   T
  0.0000000000000000  0.5000000001963727  0.2127100224929421   F   F   F
  0.0000000000000000  0.7499999814426417  0.1031299867839479   F   F   F
  0.0000000000000000  0.5000000001963727  0.3474441465836193   T   T   T
  0.0000000000000000  0.7499999814426417  0.2363799820057579   F   F   F
  0.0000000000000000  0.5000000001963727  0.1268000034528072   F   F   F
  0.0000000000000000  0.7499999814426417  0.0172200207680859   F   F   F
  0.7499999807848852  0.8440127625659315  0.3949295104620489   T   T   T
  0.7499999807848852  0.5979999869882491  0.2793400155760182   F   F   F
  0.7499999807848852  0.8480000051528549  0.1697599877862359   F   F   F
  0.7499999807848852  0.5979999869882491  0.0601699941869924   F   F   F
  0.7499999807848852  0.6559872749415305  0.3949295104620489   T   T   T
  0.7499999807848852  0.9019999758970343  0.2793400155760182   F   F   F
  0.7499999807848852  0.6520000323546071  0.1697599877862359   F   F   F
  0.7499999807848852  0.9019999758970343  0.0601699941869924   F   F   F
  0.4999999999252509  0.5000000001963727  0.4356116655126527   T   T   T
  0.4999999999252509  0.7499999814426417  0.3224062693607266   T   T   T
  0.4999999999252509  0.5000000001963727  0.2127100224929421   F   F   F
  0.4999999999252509  0.7499999814426417  0.1031299867839479   F   F   F
  0.4999999999252509  0.5000000001963727  0.3474441465836193   T   T   T
  0.4999999999252509  0.7499999814426417  0.2363799820057579   F   F   F
  0.4999999999252509  0.5000000001963727  0.1268000034528072   F   F   F
  0.4999999999252509  0.7499999814426417  0.0172200207680859   F   F   F
  0.2499999991320578  0.8440127625659315  0.3949295104620489   T   T   T
  0.2499999991320578  0.5979999869882491  0.2793400155760182   F   F   F
  0.2499999991320578  0.8480000051528549  0.1697599877862359   F   F   F
  0.2499999991320578  0.5979999869882491  0.0601699941869924   F   F   F
  0.2499999991320578  0.6559872749415305  0.3949295104620489   T   T   T
  0.2499999991320578  0.9019999758970343  0.2793400155760182   F   F   F
  0.2499999991320578  0.6520000323546071  0.1697599877862359   F   F   F
  0.2499999991320578  0.9019999758970343  0.0601699941869924   F   F   F
  0.0000000000000000  0.2500000000981899  0.3864583320725146   T   T   T
  0.0000000000000000  0.0000000000000000  0.2793400155760182   F   F   F
  0.0000000000000000  0.2500000000981899  0.1697599877862359   F   F   F
  0.0000000000000000  0.0000000000000000  0.0601699941869924   F   F   F
  0.7499999807848852  0.0000000000000000  0.3966581169727519   T   T   T
  0.7499999807848852  0.2500000000981899  0.2793400155760182   F   F   F
  0.7499999807848852  0.0000000000000000  0.1697599877862359   F   F   F
  0.7499999807848852  0.2500000000981899  0.0601699941869924   F   F   F
  0.4999999999252509  0.2500000000981899  0.3864583320725146   T   T   T
  0.4999999999252509  0.0000000000000000  0.2793400155760182   F   F   F
  0.4999999999252509  0.2500000000981899  0.1697599877862359   F   F   F
  0.4999999999252509  0.0000000000000000  0.0601699941869924   F   F   F
  0.2499999991320578  0.0000000000000000  0.3966581169727519   T   T   T
  0.2499999991320578  0.2500000000981899  0.2793400155760182   F   F   F
  0.2499999991320578  0.0000000000000000  0.1697599877862359   F   F   F
  0.2499999991320578  0.2500000000981899  0.0601699941869924   F   F   F
  0.0000000000000000  0.7499999814426417  0.3864583320725146   T   T   T
  0.0000000000000000  0.5000000001963727  0.2793400155760182   F   F   F
  0.0000000000000000  0.7499999814426417  0.1697599877862359   F   F   F
  0.0000000000000000  0.5000000001963727  0.0601699941869924   F   F   F
  0.7499999807848852  0.5000000001963727  0.3966581169727519   T   T   T
  0.7499999807848852  0.7499999814426417  0.2793400155760182   F   F   F
  0.7499999807848852  0.5000000001963727  0.1697599877862359   F   F   F
  0.7499999807848852  0.7499999814426417  0.0601699941869924   F   F   F
  0.4999999999252509  0.7499999814426417  0.3864583320725146   T   T   T
  0.4999999999252509  0.5000000001963727  0.2793400155760182   F   F   F
  0.4999999999252509  0.7499999814426417  0.1697599877862359   F   F   F
  0.4999999999252509  0.5000000001963727  0.0601699941869924   F   F   F
  0.2499999991320578  0.5000000001963727  0.3966581169727519   T   T   T
  0.2499999991320578  0.7499999814426417  0.2793400155760182   F   F   F
  0.2499999991320578  0.5000000001963727  0.1697599877862359   F   F   F
  0.2499999991320578  0.7499999814426417  0.0601699941869924   F   F   F
 
  0.00000000E+00  0.00000000E+00  0.00000000E+00
  0.00000000E+00  0.00000000E+00  0.00000000E+00
  0.00000000E+00  0.00000000E+00  0.00000000E+00
  0.00000000E+00  0.00000000E+00  0.00000000E+00
  0.00000000E+00  0.00000000E+00  0.00000000E+00
  0.00000000E+00  0.00000000E+00  0.00000000E+00
  0.00000000E+00  0.00000000E+00  0.00000000E+00
  0.00000000E+00  0.00000000E+00  0.00000000E+00
  0.00000000E+00  0.00000000E+00  0.00000000E+00
  0.00000000E+00  0.00000000E+00  0.00000000E+00
  0.00000000E+00  0.00000000E+00  0.00000000E+00
  0.00000000E+00  0.00000000E+00  0.00000000E+00
  0.00000000E+00  0.00000000E+00  0.00000000E+00
  0.00000000E+00  0.00000000E+00  0.00000000E+00
  0.00000000E+00  0.00000000E+00  0.00000000E+00
  0.00000000E+00  0.00000000E+00  0.00000000E+00
  0.00000000E+00  0.00000000E+00  0.00000000E+00
  0.00000000E+00  0.00000000E+00  0.00000000E+00
  0.00000000E+00  0.00000000E+00  0.00000000E+00
  0.00000000E+00  0.00000000E+00  0.00000000E+00
  0.00000000E+00  0.00000000E+00  0.00000000E+00
  0.00000000E+00  0.00000000E+00  0.00000000E+00
  0.00000000E+00  0.00000000E+00  0.00000000E+00
  0.00000000E+00  0.00000000E+00  0.00000000E+00
  0.00000000E+00  0.00000000E+00  0.00000000E+00
  0.00000000E+00  0.00000000E+00  0.00000000E+00
  0.00000000E+00  0.00000000E+00  0.00000000E+00
  0.00000000E+00  0.00000000E+00  0.00000000E+00
  0.00000000E+00  0.00000000E+00  0.00000000E+00
  0.00000000E+00  0.00000000E+00  0.00000000E+00
  0.00000000E+00  0.00000000E+00  0.00000000E+00
  0.00000000E+00  0.00000000E+00  0.00000000E+00
  0.00000000E+00  0.00000000E+00  0.00000000E+00
  0.00000000E+00  0.00000000E+00  0.00000000E+00
  0.00000000E+00  0.00000000E+00  0.00000000E+00
  0.00000000E+00  0.00000000E+00  0.00000000E+00
  0.00000000E+00  0.00000000E+00  0.00000000E+00
  0.00000000E+00  0.00000000E+00  0.00000000E+00
  0.00000000E+00  0.00000000E+00  0.00000000E+00
  0.00000000E+00  0.00000000E+00  0.00000000E+00
  0.00000000E+00  0.00000000E+00  0.00000000E+00
  0.00000000E+00  0.00000000E+00  0.00000000E+00
  0.00000000E+00  0.00000000E+00  0.00000000E+00
  0.00000000E+00  0.00000000E+00  0.00000000E+00
  0.00000000E+00  0.00000000E+00  0.00000000E+00
  0.00000000E+00  0.00000000E+00  0.00000000E+00
  0.00000000E+00  0.00000000E+00  0.00000000E+00
  0.00000000E+00  0.00000000E+00  0.00000000E+00
  0.00000000E+00  0.00000000E+00  0.00000000E+00
  0.00000000E+00  0.00000000E+00  0.00000000E+00
  0.00000000E+00  0.00000000E+00  0.00000000E+00
  0.00000000E+00  0.00000000E+00  0.00000000E+00
  0.00000000E+00  0.00000000E+00  0.00000000E+00
  0.00000000E+00  0.00000000E+00  0.00000000E+00
  0.00000000E+00  0.00000000E+00  0.00000000E+00
  0.00000000E+00  0.00000000E+00  0.00000000E+00
  0.00000000E+00  0.00000000E+00  0.00000000E+00
  0.00000000E+00  0.00000000E+00  0.00000000E+00
  0.00000000E+00  0.00000000E+00  0.00000000E+00
  0.00000000E+00  0.00000000E+00  0.00000000E+00
  0.00000000E+00  0.00000000E+00  0.00000000E+00
  0.00000000E+00  0.00000000E+00  0.00000000E+00
  0.00000000E+00  0.00000000E+00  0.00000000E+00
  0.00000000E+00  0.00000000E+00  0.00000000E+00
  0.00000000E+00  0.00000000E+00  0.00000000E+00
  0.00000000E+00  0.00000000E+00  0.00000000E+00
  0.00000000E+00  0.00000000E+00  0.00000000E+00
  0.00000000E+00  0.00000000E+00  0.00000000E+00
  0.00000000E+00  0.00000000E+00  0.00000000E+00
  0.00000000E+00  0.00000000E+00  0.00000000E+00
  0.00000000E+00  0.00000000E+00  0.00000000E+00
  0.00000000E+00  0.00000000E+00  0.00000000E+00
  0.00000000E+00  0.00000000E+00  0.00000000E+00
  0.00000000E+00  0.00000000E+00  0.00000000E+00
  0.00000000E+00  0.00000000E+00  0.00000000E+00
  0.00000000E+00  0.00000000E+00  0.00000000E+00
  0.00000000E+00  0.00000000E+00  0.00000000E+00
  0.00000000E+00  0.00000000E+00  0.00000000E+00
  0.00000000E+00  0.00000000E+00  0.00000000E+00
  0.00000000E+00  0.00000000E+00  0.00000000E+00
  0.00000000E+00  0.00000000E+00  0.00000000E+00
  0.00000000E+00  0.00000000E+00  0.00000000E+00
  0.00000000E+00  0.00000000E+00  0.00000000E+00
  0.00000000E+00  0.00000000E+00  0.00000000E+00
  0.00000000E+00  0.00000000E+00  0.00000000E+00
  0.00000000E+00  0.00000000E+00  0.00000000E+00
  0.00000000E+00  0.00000000E+00  0.00000000E+00
  0.00000000E+00  0.00000000E+00  0.00000000E+00
  0.00000000E+00  0.00000000E+00  0.00000000E+00
  0.00000000E+00  0.00000000E+00  0.00000000E+00
  0.00000000E+00  0.00000000E+00  0.00000000E+00
  0.00000000E+00  0.00000000E+00  0.00000000E+00
  0.00000000E+00  0.00000000E+00  0.00000000E+00
  0.00000000E+00  0.00000000E+00  0.00000000E+00
  0.00000000E+00  0.00000000E+00  0.00000000E+00
  0.00000000E+00  0.00000000E+00  0.00000000E+00
