CONTCAR\(13)\(1\0\0)                    
   1.00000000000000     
    12.7002000000000006    0.0000000000000000    0.0000000000000000
     0.0000000000000000   12.2213999999999992    0.0000000000000000
     0.0000000000000000    0.0000000000000000   20.0000000000000000
   Te   Cr
    24     8
Direct
  0.4999588959121724  0.9056680949918672  0.1720700187044244
  0.5002776577058938  0.0943836257713713  0.0379271032889790
  0.0000411040446195  0.4056680949963010  0.0380560715955767
  0.9997223521894441  0.5943836183187443  0.1721989870110221
  0.1553130556286106  0.3159026071948219  0.1851136456983085
  0.8446217752741561  0.6838646720141526  0.0249848342585821
  0.3446869443281741  0.8159026071903881  0.0250124508016896
  0.6553782247690592  0.1838646571222000  0.1851412622414159
  0.3452563449630475  0.1832728599859550  0.1851017091263714
  0.6547853793895939  0.8166195151762210  0.0250598018478243
  0.1547436549937444  0.6832728897743010  0.0250243924736253
  0.8452146206536142  0.3166195449734417  0.1850662997521724
  0.3438974083734152  0.6092516382448494  0.1750356793228462
  0.6562119340304804  0.3909217373992533  0.0351828460541981
  0.1561026065344180  0.1092516531456695  0.0350904222771575
  0.8437880660127277  0.8909217671876064  0.1749432555458057
  0.5006962391408933  0.4518746254141703  0.2082288209031589
  0.4992316630204741  0.5481328554906071  0.0021651964356479
  0.9993037609023148  0.9518746254097366  0.0018972761968428
  0.0007683250100499  0.0481328592191375  0.2079609006643537
  0.6567351658353147  0.6101951257622460  0.1742498213742891
  0.3432632867109575  0.3897631113906499  0.0361022745554038
  0.8432648342079005  0.1101951257666798  0.0358762847257097
  0.1567367132458273  0.8897631113862161  0.1740238315445950
  0.1736035486965690  0.4998120024716712  0.1053960370680684
  0.0002846503325173  0.2104489921960990  0.1106060639258075
  0.5002404891053871  0.2896669744770080  0.1108226696433334
  0.6737932310421897  0.0002315318097459  0.1053535334767517
  0.8262067689146022  0.5002315084853635  0.1047725636232428
  0.9997595108514048  0.7896669744725742  0.0993034274566682
  0.4997153482415158  0.7104489772952789  0.0995200331741941
  0.3263964513466391  0.9998120322600244  0.1047300600319261
 
  0.00000000E+00  0.00000000E+00  0.00000000E+00
  0.00000000E+00  0.00000000E+00  0.00000000E+00
  0.00000000E+00  0.00000000E+00  0.00000000E+00
  0.00000000E+00  0.00000000E+00  0.00000000E+00
  0.00000000E+00  0.00000000E+00  0.00000000E+00
  0.00000000E+00  0.00000000E+00  0.00000000E+00
  0.00000000E+00  0.00000000E+00  0.00000000E+00
  0.00000000E+00  0.00000000E+00  0.00000000E+00
  0.00000000E+00  0.00000000E+00  0.00000000E+00
  0.00000000E+00  0.00000000E+00  0.00000000E+00
  0.00000000E+00  0.00000000E+00  0.00000000E+00
  0.00000000E+00  0.00000000E+00  0.00000000E+00
  0.00000000E+00  0.00000000E+00  0.00000000E+00
  0.00000000E+00  0.00000000E+00  0.00000000E+00
  0.00000000E+00  0.00000000E+00  0.00000000E+00
  0.00000000E+00  0.00000000E+00  0.00000000E+00
  0.00000000E+00  0.00000000E+00  0.00000000E+00
  0.00000000E+00  0.00000000E+00  0.00000000E+00
  0.00000000E+00  0.00000000E+00  0.00000000E+00
  0.00000000E+00  0.00000000E+00  0.00000000E+00
  0.00000000E+00  0.00000000E+00  0.00000000E+00
  0.00000000E+00  0.00000000E+00  0.00000000E+00
  0.00000000E+00  0.00000000E+00  0.00000000E+00
  0.00000000E+00  0.00000000E+00  0.00000000E+00
  0.00000000E+00  0.00000000E+00  0.00000000E+00
  0.00000000E+00  0.00000000E+00  0.00000000E+00
  0.00000000E+00  0.00000000E+00  0.00000000E+00
  0.00000000E+00  0.00000000E+00  0.00000000E+00
  0.00000000E+00  0.00000000E+00  0.00000000E+00
  0.00000000E+00  0.00000000E+00  0.00000000E+00
  0.00000000E+00  0.00000000E+00  0.00000000E+00
  0.00000000E+00  0.00000000E+00  0.00000000E+00
