Sc2O3                          
   1.00000000000000     
     9.8530745798441046    0.0000000000000000    0.0000000000000000
     0.0000000000000000    9.8530745798441046    0.0000000000000000
     0.0000000000000000    0.0000000000000000    9.8530745798441046
   Sc   O 
    32    48
Direct
  0.7500000000000000  0.2500000000000000  0.2500000000000000
  0.2500000000000000  0.7500000000000000  0.7500000000000000
  0.2500000000000000  0.2500000000000000  0.7500000000000000
  0.7500000000000000  0.7500000000000000  0.2500000000000000
  0.2500000000000000  0.7500000000000000  0.2500000000000000
  0.7500000000000000  0.2500000000000000  0.7500000000000000
  0.2500000000000000  0.2500000000000000  0.2500000000000000
  0.7500000000000000  0.7500000000000000  0.7500000000000000
  0.0000000000000000  0.4632437800370468  0.2500000000000000
  0.5000000000000000  0.9632437330370465  0.7500000000000000
  0.0000000000000000  0.0367562439629552  0.7500000000000000
  0.5000000000000000  0.5367562199629532  0.2500000000000000
  0.5367562199629532  0.2500000000000000  0.0000000000000000
  0.0367562439629552  0.7500000000000000  0.5000000000000000
  0.4632437800370468  0.2500000000000000  0.5000000000000000
  0.9632437330370465  0.7500000000000000  0.0000000000000000
  0.7500000000000000  0.0000000000000000  0.4632437800370468
  0.2500000000000000  0.5000000000000000  0.9632437330370465
  0.2500000000000000  0.0000000000000000  0.0367562439629552
  0.7500000000000000  0.5000000000000000  0.5367562199629532
  0.5000000000000000  0.0367562439629552  0.2500000000000000
  0.0000000000000000  0.5367562199629532  0.7500000000000000
  0.0000000000000000  0.9632437330370465  0.2500000000000000
  0.5000000000000000  0.4632437800370468  0.7500000000000000
  0.4632437800370468  0.7500000000000000  0.0000000000000000
  0.9632437330370465  0.2500000000000000  0.5000000000000000
  0.0367562439629552  0.2500000000000000  0.0000000000000000
  0.5367562199629532  0.7500000000000000  0.5000000000000000
  0.2500000000000000  0.0000000000000000  0.5367562199629532
  0.7500000000000000  0.5000000000000000  0.0367562439629552
  0.2500000000000000  0.5000000000000000  0.4632437800370468
  0.7500000000000000  0.0000000000000000  0.9632437330370465
  0.8453661666743315  0.3913643545819454  0.3813181219993638
  0.3453661896743370  0.8913643775819438  0.8813181219993638
  0.1546337983256691  0.1086356574180556  0.8813181219993638
  0.6546337863256682  0.6086356694180566  0.3813181219993638
  0.3453661896743370  0.6086356694180566  0.1186818780006362
  0.8453661666743315  0.1086356574180556  0.6186818780006362
  0.1546337983256691  0.3913643545819454  0.1186818780006362
  0.6546337863256682  0.8913643775819438  0.6186818780006362
  0.6086356694180566  0.3813181219993638  0.1546337983256691
  0.1086356574180556  0.8813181219993638  0.6546337863256682
  0.3913643545819454  0.3813181219993638  0.3453661896743370
  0.8913643775819438  0.8813181219993638  0.8453661666743315
  0.3913643545819454  0.1186818780006362  0.6546337863256682
  0.8913643775819438  0.6186818780006362  0.1546337983256691
  0.1086356574180556  0.6186818780006362  0.3453661896743370
  0.6086356694180566  0.1186818780006362  0.8453661666743315
  0.6186818780006362  0.1546337983256691  0.3913643545819454
  0.1186818780006362  0.6546337863256682  0.8913643775819438
  0.1186818780006362  0.8453661666743315  0.1086356574180556
  0.6186818780006362  0.3453661896743370  0.6086356694180566
  0.3813181219993638  0.1546337983256691  0.1086356574180556
  0.8813181219993638  0.6546337863256682  0.6086356694180566
  0.3813181219993638  0.3453661896743370  0.8913643775819438
  0.8813181219993638  0.8453661666743315  0.3913643545819454
  0.6546337863256682  0.1086356574180556  0.1186818780006362
  0.1546337983256691  0.6086356694180566  0.6186818780006362
  0.3453661896743370  0.3913643545819454  0.6186818780006362
  0.8453661666743315  0.8913643775819438  0.1186818780006362
  0.1546337983256691  0.8913643775819438  0.3813181219993638
  0.6546337863256682  0.3913643545819454  0.8813181219993638
  0.3453661896743370  0.1086356574180556  0.3813181219993638
  0.8453661666743315  0.6086356694180566  0.8813181219993638
  0.8913643775819438  0.1186818780006362  0.3453661896743370
  0.3913643545819454  0.6186818780006362  0.8453661666743315
  0.1086356574180556  0.1186818780006362  0.1546337983256691
  0.6086356694180566  0.6186818780006362  0.6546337863256682
  0.1086356574180556  0.3813181219993638  0.8453661666743315
  0.6086356694180566  0.8813181219993638  0.3453661896743370
  0.3913643545819454  0.8813181219993638  0.1546337983256691
  0.8913643775819438  0.3813181219993638  0.6546337863256682
  0.8813181219993638  0.3453661896743370  0.1086356574180556
  0.3813181219993638  0.8453661666743315  0.6086356694180566
  0.3813181219993638  0.6546337863256682  0.3913643545819454
  0.8813181219993638  0.1546337983256691  0.8913643775819438
  0.1186818780006362  0.3453661896743370  0.3913643545819454
  0.6186818780006362  0.8453661666743315  0.8913643775819438
  0.1186818780006362  0.1546337983256691  0.6086356694180566
  0.6186818780006362  0.6546337863256682  0.1086356574180556
 
  0.00000000E+00  0.00000000E+00  0.00000000E+00
  0.00000000E+00  0.00000000E+00  0.00000000E+00
  0.00000000E+00  0.00000000E+00  0.00000000E+00
  0.00000000E+00  0.00000000E+00  0.00000000E+00
  0.00000000E+00  0.00000000E+00  0.00000000E+00
  0.00000000E+00  0.00000000E+00  0.00000000E+00
  0.00000000E+00  0.00000000E+00  0.00000000E+00
  0.00000000E+00  0.00000000E+00  0.00000000E+00
  0.00000000E+00  0.00000000E+00  0.00000000E+00
  0.00000000E+00  0.00000000E+00  0.00000000E+00
  0.00000000E+00  0.00000000E+00  0.00000000E+00
  0.00000000E+00  0.00000000E+00  0.00000000E+00
  0.00000000E+00  0.00000000E+00  0.00000000E+00
  0.00000000E+00  0.00000000E+00  0.00000000E+00
  0.00000000E+00  0.00000000E+00  0.00000000E+00
  0.00000000E+00  0.00000000E+00  0.00000000E+00
  0.00000000E+00  0.00000000E+00  0.00000000E+00
  0.00000000E+00  0.00000000E+00  0.00000000E+00
  0.00000000E+00  0.00000000E+00  0.00000000E+00
  0.00000000E+00  0.00000000E+00  0.00000000E+00
  0.00000000E+00  0.00000000E+00  0.00000000E+00
  0.00000000E+00  0.00000000E+00  0.00000000E+00
  0.00000000E+00  0.00000000E+00  0.00000000E+00
  0.00000000E+00  0.00000000E+00  0.00000000E+00
  0.00000000E+00  0.00000000E+00  0.00000000E+00
  0.00000000E+00  0.00000000E+00  0.00000000E+00
  0.00000000E+00  0.00000000E+00  0.00000000E+00
  0.00000000E+00  0.00000000E+00  0.00000000E+00
  0.00000000E+00  0.00000000E+00  0.00000000E+00
  0.00000000E+00  0.00000000E+00  0.00000000E+00
  0.00000000E+00  0.00000000E+00  0.00000000E+00
  0.00000000E+00  0.00000000E+00  0.00000000E+00
  0.00000000E+00  0.00000000E+00  0.00000000E+00
  0.00000000E+00  0.00000000E+00  0.00000000E+00
  0.00000000E+00  0.00000000E+00  0.00000000E+00
  0.00000000E+00  0.00000000E+00  0.00000000E+00
  0.00000000E+00  0.00000000E+00  0.00000000E+00
  0.00000000E+00  0.00000000E+00  0.00000000E+00
  0.00000000E+00  0.00000000E+00  0.00000000E+00
  0.00000000E+00  0.00000000E+00  0.00000000E+00
  0.00000000E+00  0.00000000E+00  0.00000000E+00
  0.00000000E+00  0.00000000E+00  0.00000000E+00
  0.00000000E+00  0.00000000E+00  0.00000000E+00
  0.00000000E+00  0.00000000E+00  0.00000000E+00
  0.00000000E+00  0.00000000E+00  0.00000000E+00
  0.00000000E+00  0.00000000E+00  0.00000000E+00
  0.00000000E+00  0.00000000E+00  0.00000000E+00
  0.00000000E+00  0.00000000E+00  0.00000000E+00
  0.00000000E+00  0.00000000E+00  0.00000000E+00
  0.00000000E+00  0.00000000E+00  0.00000000E+00
  0.00000000E+00  0.00000000E+00  0.00000000E+00
  0.00000000E+00  0.00000000E+00  0.00000000E+00
  0.00000000E+00  0.00000000E+00  0.00000000E+00
  0.00000000E+00  0.00000000E+00  0.00000000E+00
  0.00000000E+00  0.00000000E+00  0.00000000E+00
  0.00000000E+00  0.00000000E+00  0.00000000E+00
  0.00000000E+00  0.00000000E+00  0.00000000E+00
  0.00000000E+00  0.00000000E+00  0.00000000E+00
  0.00000000E+00  0.00000000E+00  0.00000000E+00
  0.00000000E+00  0.00000000E+00  0.00000000E+00
  0.00000000E+00  0.00000000E+00  0.00000000E+00
  0.00000000E+00  0.00000000E+00  0.00000000E+00
  0.00000000E+00  0.00000000E+00  0.00000000E+00
  0.00000000E+00  0.00000000E+00  0.00000000E+00
  0.00000000E+00  0.00000000E+00  0.00000000E+00
  0.00000000E+00  0.00000000E+00  0.00000000E+00
  0.00000000E+00  0.00000000E+00  0.00000000E+00
  0.00000000E+00  0.00000000E+00  0.00000000E+00
  0.00000000E+00  0.00000000E+00  0.00000000E+00
  0.00000000E+00  0.00000000E+00  0.00000000E+00
  0.00000000E+00  0.00000000E+00  0.00000000E+00
  0.00000000E+00  0.00000000E+00  0.00000000E+00
  0.00000000E+00  0.00000000E+00  0.00000000E+00
  0.00000000E+00  0.00000000E+00  0.00000000E+00
  0.00000000E+00  0.00000000E+00  0.00000000E+00
  0.00000000E+00  0.00000000E+00  0.00000000E+00
  0.00000000E+00  0.00000000E+00  0.00000000E+00
  0.00000000E+00  0.00000000E+00  0.00000000E+00
  0.00000000E+00  0.00000000E+00  0.00000000E+00
  0.00000000E+00  0.00000000E+00  0.00000000E+00
