C (body-centered cubic) G-H-N-G-P-H P-N 
10   ! 20 grids  
Line-mode 
reciprocal 
   0.000   0.000   0.000   ! \Gamma  
   0.500  -0.500   0.500   ! H  
  
   0.500  -0.500   0.500   ! H  
   0.000   0.000   0.500   ! N  
  
   0.000   0.000   0.500   ! N  
   0.000   0.000   0.000   ! \Gamma  
  
   0.000   0.000   0.000   ! \Gamma  
   0.250   0.250   0.250   ! P  
  
   0.250   0.250   0.250   ! P  
   0.500  -0.500   0.500   ! H  
  
   0.250   0.250   0.250   ! P  
   0.000   0.000   0.500   ! N  

