In2O3                         
   1.00000000000000     
    10.3395594786930580    0.0000000000000000    0.0000000000000000
     0.0000000000000000   10.3395594786930580    0.0000000000000000
     0.0000000000000000    0.0000000000000000   10.3395594786930580
   In   O 
    32    48
Direct
  0.7500000000000000  0.2500000000000000  0.2500000000000000
  0.2500000000000000  0.7500000000000000  0.7500000000000000
  0.2500000000000000  0.2500000000000000  0.7500000000000000
  0.7500000000000000  0.7500000000000000  0.2500000000000000
  0.2500000000000000  0.7500000000000000  0.2500000000000000
  0.7500000000000000  0.2500000000000000  0.7500000000000000
  0.2500000000000000  0.2500000000000000  0.2500000000000000
  0.7500000000000000  0.7500000000000000  0.7500000000000000
  0.0000000000000000  0.4650024373079233  0.2500000000000000
  0.5000000000000000  0.9650023903079230  0.7500000000000000
  0.0000000000000000  0.0349975866920786  0.7500000000000000
  0.5000000000000000  0.5349975626920767  0.2500000000000000
  0.5349975626920767  0.2500000000000000  0.0000000000000000
  0.0349975866920786  0.7500000000000000  0.5000000000000000
  0.4650024373079233  0.2500000000000000  0.5000000000000000
  0.9650023903079230  0.7500000000000000  0.0000000000000000
  0.7500000000000000  0.0000000000000000  0.4650024373079233
  0.2500000000000000  0.5000000000000000  0.9650023903079230
  0.2500000000000000  0.0000000000000000  0.0349975866920786
  0.7500000000000000  0.5000000000000000  0.5349975626920767
  0.5000000000000000  0.0349975866920786  0.2500000000000000
  0.0000000000000000  0.5349975626920767  0.7500000000000000
  0.0000000000000000  0.9650023903079230  0.2500000000000000
  0.5000000000000000  0.4650024373079233  0.7500000000000000
  0.4650024373079233  0.7500000000000000  0.0000000000000000
  0.9650023903079230  0.2500000000000000  0.5000000000000000
  0.0349975866920786  0.2500000000000000  0.0000000000000000
  0.5349975626920767  0.7500000000000000  0.5000000000000000
  0.2500000000000000  0.0000000000000000  0.5349975626920767
  0.7500000000000000  0.5000000000000000  0.0349975866920786
  0.2500000000000000  0.5000000000000000  0.4650024373079233
  0.7500000000000000  0.0000000000000000  0.9650023903079230
  0.8456223655552577  0.3898455663522000  0.3822423266665211
  0.3456223885552632  0.8898455893521984  0.8822423266665211
  0.1543775994447429  0.1101544456478010  0.8822423266665211
  0.6543775874447419  0.6101544576478020  0.3822423266665211
  0.3456223885552632  0.6101544576478020  0.1177576733334789
  0.8456223655552577  0.1101544456478010  0.6177576733334789
  0.1543775994447429  0.3898455663522000  0.1177576733334789
  0.6543775874447419  0.8898455893521984  0.6177576733334789
  0.6101544576478020  0.3822423266665211  0.1543775994447429
  0.1101544456478010  0.8822423266665211  0.6543775874447419
  0.3898455663522000  0.3822423266665211  0.3456223885552632
  0.8898455893521984  0.8822423266665211  0.8456223655552577
  0.3898455663522000  0.1177576733334789  0.6543775874447419
  0.8898455893521984  0.6177576733334789  0.1543775994447429
  0.1101544456478010  0.6177576733334789  0.3456223885552632
  0.6101544576478020  0.1177576733334789  0.8456223655552577
  0.6177576733334789  0.1543775994447429  0.3898455663522000
  0.1177576733334789  0.6543775874447419  0.8898455893521984
  0.1177576733334789  0.8456223655552577  0.1101544456478010
  0.6177576733334789  0.3456223885552632  0.6101544576478020
  0.3822423266665211  0.1543775994447429  0.1101544456478010
  0.8822423266665211  0.6543775874447419  0.6101544576478020
  0.3822423266665211  0.3456223885552632  0.8898455893521984
  0.8822423266665211  0.8456223655552577  0.3898455663522000
  0.6543775874447419  0.1101544456478010  0.1177576733334789
  0.1543775994447429  0.6101544576478020  0.6177576733334789
  0.3456223885552632  0.3898455663522000  0.6177576733334789
  0.8456223655552577  0.8898455893521984  0.1177576733334789
  0.1543775994447429  0.8898455893521984  0.3822423266665211
  0.6543775874447419  0.3898455663522000  0.8822423266665211
  0.3456223885552632  0.1101544456478010  0.3822423266665211
  0.8456223655552577  0.6101544576478020  0.8822423266665211
  0.8898455893521984  0.1177576733334789  0.3456223885552632
  0.3898455663522000  0.6177576733334789  0.8456223655552577
  0.1101544456478010  0.1177576733334789  0.1543775994447429
  0.6101544576478020  0.6177576733334789  0.6543775874447419
  0.1101544456478010  0.3822423266665211  0.8456223655552577
  0.6101544576478020  0.8822423266665211  0.3456223885552632
  0.3898455663522000  0.8822423266665211  0.1543775994447429
  0.8898455893521984  0.3822423266665211  0.6543775874447419
  0.8822423266665211  0.3456223885552632  0.1101544456478010
  0.3822423266665211  0.8456223655552577  0.6101544576478020
  0.3822423266665211  0.6543775874447419  0.3898455663522000
  0.8822423266665211  0.1543775994447429  0.8898455893521984
  0.1177576733334789  0.3456223885552632  0.3898455663522000
  0.6177576733334789  0.8456223655552577  0.8898455893521984
  0.1177576733334789  0.1543775994447429  0.6101544576478020
  0.6177576733334789  0.6543775874447419  0.1101544456478010
 
  0.00000000E+00  0.00000000E+00  0.00000000E+00
  0.00000000E+00  0.00000000E+00  0.00000000E+00
  0.00000000E+00  0.00000000E+00  0.00000000E+00
  0.00000000E+00  0.00000000E+00  0.00000000E+00
  0.00000000E+00  0.00000000E+00  0.00000000E+00
  0.00000000E+00  0.00000000E+00  0.00000000E+00
  0.00000000E+00  0.00000000E+00  0.00000000E+00
  0.00000000E+00  0.00000000E+00  0.00000000E+00
  0.00000000E+00  0.00000000E+00  0.00000000E+00
  0.00000000E+00  0.00000000E+00  0.00000000E+00
  0.00000000E+00  0.00000000E+00  0.00000000E+00
  0.00000000E+00  0.00000000E+00  0.00000000E+00
  0.00000000E+00  0.00000000E+00  0.00000000E+00
  0.00000000E+00  0.00000000E+00  0.00000000E+00
  0.00000000E+00  0.00000000E+00  0.00000000E+00
  0.00000000E+00  0.00000000E+00  0.00000000E+00
  0.00000000E+00  0.00000000E+00  0.00000000E+00
  0.00000000E+00  0.00000000E+00  0.00000000E+00
  0.00000000E+00  0.00000000E+00  0.00000000E+00
  0.00000000E+00  0.00000000E+00  0.00000000E+00
  0.00000000E+00  0.00000000E+00  0.00000000E+00
  0.00000000E+00  0.00000000E+00  0.00000000E+00
  0.00000000E+00  0.00000000E+00  0.00000000E+00
  0.00000000E+00  0.00000000E+00  0.00000000E+00
  0.00000000E+00  0.00000000E+00  0.00000000E+00
  0.00000000E+00  0.00000000E+00  0.00000000E+00
  0.00000000E+00  0.00000000E+00  0.00000000E+00
  0.00000000E+00  0.00000000E+00  0.00000000E+00
  0.00000000E+00  0.00000000E+00  0.00000000E+00
  0.00000000E+00  0.00000000E+00  0.00000000E+00
  0.00000000E+00  0.00000000E+00  0.00000000E+00
  0.00000000E+00  0.00000000E+00  0.00000000E+00
  0.00000000E+00  0.00000000E+00  0.00000000E+00
  0.00000000E+00  0.00000000E+00  0.00000000E+00
  0.00000000E+00  0.00000000E+00  0.00000000E+00
  0.00000000E+00  0.00000000E+00  0.00000000E+00
  0.00000000E+00  0.00000000E+00  0.00000000E+00
  0.00000000E+00  0.00000000E+00  0.00000000E+00
  0.00000000E+00  0.00000000E+00  0.00000000E+00
  0.00000000E+00  0.00000000E+00  0.00000000E+00
  0.00000000E+00  0.00000000E+00  0.00000000E+00
  0.00000000E+00  0.00000000E+00  0.00000000E+00
  0.00000000E+00  0.00000000E+00  0.00000000E+00
  0.00000000E+00  0.00000000E+00  0.00000000E+00
  0.00000000E+00  0.00000000E+00  0.00000000E+00
  0.00000000E+00  0.00000000E+00  0.00000000E+00
  0.00000000E+00  0.00000000E+00  0.00000000E+00
  0.00000000E+00  0.00000000E+00  0.00000000E+00
  0.00000000E+00  0.00000000E+00  0.00000000E+00
  0.00000000E+00  0.00000000E+00  0.00000000E+00
  0.00000000E+00  0.00000000E+00  0.00000000E+00
  0.00000000E+00  0.00000000E+00  0.00000000E+00
  0.00000000E+00  0.00000000E+00  0.00000000E+00
  0.00000000E+00  0.00000000E+00  0.00000000E+00
  0.00000000E+00  0.00000000E+00  0.00000000E+00
  0.00000000E+00  0.00000000E+00  0.00000000E+00
  0.00000000E+00  0.00000000E+00  0.00000000E+00
  0.00000000E+00  0.00000000E+00  0.00000000E+00
  0.00000000E+00  0.00000000E+00  0.00000000E+00
  0.00000000E+00  0.00000000E+00  0.00000000E+00
  0.00000000E+00  0.00000000E+00  0.00000000E+00
  0.00000000E+00  0.00000000E+00  0.00000000E+00
  0.00000000E+00  0.00000000E+00  0.00000000E+00
  0.00000000E+00  0.00000000E+00  0.00000000E+00
  0.00000000E+00  0.00000000E+00  0.00000000E+00
  0.00000000E+00  0.00000000E+00  0.00000000E+00
  0.00000000E+00  0.00000000E+00  0.00000000E+00
  0.00000000E+00  0.00000000E+00  0.00000000E+00
  0.00000000E+00  0.00000000E+00  0.00000000E+00
  0.00000000E+00  0.00000000E+00  0.00000000E+00
  0.00000000E+00  0.00000000E+00  0.00000000E+00
  0.00000000E+00  0.00000000E+00  0.00000000E+00
  0.00000000E+00  0.00000000E+00  0.00000000E+00
  0.00000000E+00  0.00000000E+00  0.00000000E+00
  0.00000000E+00  0.00000000E+00  0.00000000E+00
  0.00000000E+00  0.00000000E+00  0.00000000E+00
  0.00000000E+00  0.00000000E+00  0.00000000E+00
  0.00000000E+00  0.00000000E+00  0.00000000E+00
  0.00000000E+00  0.00000000E+00  0.00000000E+00
  0.00000000E+00  0.00000000E+00  0.00000000E+00
