CONTCAR\(13)\(1\0\0)                    
   1.00000000000000     
    12.7002000000000006    0.0000000000000000    0.0000000000000000
     0.0000000000000000   12.2213999999999992    0.0000000000000000
     0.0000000000000000    0.0000000000000000   20.0000000000000000
   Te   Cr
    24     8
Direct
  0.4996299246759861  0.9057575319509183  0.1713057287330884
  0.5002537133140237  0.0940035573160429  0.0387490001727997
  0.0003700752808058  0.4057575319553521  0.0388203615669127
  0.9997462965813142  0.5940035498634160  0.1713770901272014
  0.1543788664272725  0.3141026208013002  0.1819491729824918
  0.8458977764948941  0.6860568016512971  0.0283555793751518
  0.3456211335295123  0.8141026207968665  0.0281769235175062
  0.6541022235483211  0.1860567867593446  0.1817705171248463
  0.3462905643782292  0.1855557737748370  0.1816641037779689
  0.6541066655463013  0.8147871686197590  0.0284462828074297
  0.1537094355785626  0.6855558035631830  0.0284619978220277
  0.8458933344969068  0.3147871984169797  0.1816798187925670
  0.3431434053394469  0.6069131763679252  0.1773869613619823
  0.6571043793094020  0.3930474046267065  0.0324340797448457
  0.1568566095683863  0.1069131912687453  0.0327391402380215
  0.8428956207338132  0.8930474344150596  0.1776920218551581
  0.5001478473371250  0.4484103234094263  0.2070845556064285
  0.4999618604337215  0.5516581300919725  0.0027937428606037
  0.9998521527060831  0.9484103234049925  0.0030415414935732
  0.0000381275968024  0.0516581338205029  0.2073323542393979
  0.6571591391267759  0.6061770708615484  0.1766907258027217
  0.3427723331525243  0.3935168321331446  0.0328823767847766
  0.8428408609164393  0.1061770708659822  0.0334353802972771
  0.1572276668042605  0.8935168321287108  0.1772437293152223
  0.1749876203685048  0.5000879505752138  0.1052788024375317
  0.9999995841872931  0.2110939137139241  0.1072627396712775
  0.5000671457479910  0.2889761477429644  0.1069283488099231
  0.6749911367382637  0.9998655661537157  0.1054457498894266
  0.8250088632185282  0.4998655428293333  0.1046803472105680
  0.9999328542088008  0.7889761477385306  0.1031977482900786
  0.5000004143867400  0.7110938988131039  0.1028633574287241
  0.3250123796747033  0.0000879803635669  0.1048472946624628
 
  0.00000000E+00  0.00000000E+00  0.00000000E+00
  0.00000000E+00  0.00000000E+00  0.00000000E+00
  0.00000000E+00  0.00000000E+00  0.00000000E+00
  0.00000000E+00  0.00000000E+00  0.00000000E+00
  0.00000000E+00  0.00000000E+00  0.00000000E+00
  0.00000000E+00  0.00000000E+00  0.00000000E+00
  0.00000000E+00  0.00000000E+00  0.00000000E+00
  0.00000000E+00  0.00000000E+00  0.00000000E+00
  0.00000000E+00  0.00000000E+00  0.00000000E+00
  0.00000000E+00  0.00000000E+00  0.00000000E+00
  0.00000000E+00  0.00000000E+00  0.00000000E+00
  0.00000000E+00  0.00000000E+00  0.00000000E+00
  0.00000000E+00  0.00000000E+00  0.00000000E+00
  0.00000000E+00  0.00000000E+00  0.00000000E+00
  0.00000000E+00  0.00000000E+00  0.00000000E+00
  0.00000000E+00  0.00000000E+00  0.00000000E+00
  0.00000000E+00  0.00000000E+00  0.00000000E+00
  0.00000000E+00  0.00000000E+00  0.00000000E+00
  0.00000000E+00  0.00000000E+00  0.00000000E+00
  0.00000000E+00  0.00000000E+00  0.00000000E+00
  0.00000000E+00  0.00000000E+00  0.00000000E+00
  0.00000000E+00  0.00000000E+00  0.00000000E+00
  0.00000000E+00  0.00000000E+00  0.00000000E+00
  0.00000000E+00  0.00000000E+00  0.00000000E+00
  0.00000000E+00  0.00000000E+00  0.00000000E+00
  0.00000000E+00  0.00000000E+00  0.00000000E+00
  0.00000000E+00  0.00000000E+00  0.00000000E+00
  0.00000000E+00  0.00000000E+00  0.00000000E+00
  0.00000000E+00  0.00000000E+00  0.00000000E+00
  0.00000000E+00  0.00000000E+00  0.00000000E+00
  0.00000000E+00  0.00000000E+00  0.00000000E+00
  0.00000000E+00  0.00000000E+00  0.00000000E+00
