O48 Mg2 Sc3 In27                        
   1.00000000000000     
    10.2608022021880299    0.0061251528566356   -0.0044141072851970
     0.0061250420820049   10.2621224666794060   -0.0054122320347208
    -0.0044165925188628   -0.0054078094529720   10.2655566087065360
   O    Mg   Sc   In
    48     2     3    27
Direct
  0.6584163938524767  0.8807900916400229  0.6184380933708624
  0.3875270055329878  0.8397138920070901  0.6057548184739971
  0.3914868660747857  0.8812020757604415  0.1529965888742240
  0.1537401720157874  0.8882936384754174  0.3833121537231747
  0.8903885426046472  0.3901495045178152  0.6553256203357236
  0.1047914263578562  0.3857499756373528  0.8410445192502678
  0.6108821855789657  0.6206425845451733  0.6537343815923791
  0.1092862258817959  0.1184113023689406  0.1537088966551394
  0.3949343931119600  0.6141189386742880  0.8408942938636770
  0.8895701534062397  0.1189120563995871  0.3476790050710790
  0.8429914319174330  0.6107894916593111  0.8750540001087685
  0.3465872132448453  0.1110966169756367  0.3830742431309204
  0.6056617302718692  0.8761658767428884  0.3534748168420236
  0.6106638960804389  0.3835754494751455  0.1542815452206128
  0.1550300454615439  0.3915003509627653  0.1170275249409585
  0.8435297033164773  0.1113621340935893  0.6190953403164414
  0.3460157701952440  0.6095664859270045  0.1181261419324784
  0.6567863768258420  0.6082742201326568  0.3911185394448040
  0.1551591473361142  0.1104485892185281  0.8811228125057227
  0.8401509784105059  0.3967559940880463  0.3875406918793303
  0.3458685439066898  0.8890749286401842  0.8797496989993974
  0.1174572520029571  0.1543817258146802  0.6102150636634747
  0.8816203231764703  0.3459572663038131  0.1101515728844689
  0.3879312650786559  0.6584466751030149  0.3960458089176200
  0.6180500818678496  0.6547952096392109  0.1119600677210428
  0.1170156065284473  0.3458979982940988  0.3909819437340474
  0.8813329884283405  0.1547311469325408  0.8895742856617730
  0.6546144382121994  0.1096390177544748  0.1180261433236467
  0.1470416836845700  0.6056517333853506  0.6208917041832649
  0.8820533341184316  0.8449375871300902  0.3908545518699427
  0.8731092850949977  0.6530737109772602  0.6113161743937638
  0.3827876941462733  0.1545575965505464  0.1097888335899455
  0.6213030213411059  0.3567695545480163  0.6080264532605568
  0.3516275489087022  0.3944183519772366  0.6209634658038610
  0.1177088834319306  0.8443803574148205  0.1092625759086516
  0.1152986545733015  0.6517612961158648  0.8860021701053853
  0.3834913761320493  0.3484570410012040  0.8865879554660197
  0.6108350678400924  0.1174391226083316  0.8434901775124501
  0.8894820259752905  0.6176919460072057  0.1531448766604768
  0.3910795111961889  0.1167335997941734  0.6547129262871962
  0.8855079663205032  0.8783938431605733  0.8385088724761829
  0.3900334651790729  0.3840713779101179  0.3464971223221340
  0.6179833606711469  0.1536738713217289  0.3919402669333962
  0.1117237551606749  0.8809318746280752  0.6546197140998231
  0.8446450194041049  0.8886286357614708  0.1173928497639096
  0.6487276318230144  0.3944198869876061  0.8783440971679610
  0.6209407668021854  0.8386547475213675  0.8853280235855721
  0.1108283389418645  0.6175168452521973  0.3467137109639609
  0.9979869163576538  0.5333645110877683  0.7495300629799146
  0.5017756556702651  0.4697897658109369  0.7477833617825524
  0.5399863600957815  0.7445382450105740  0.5066997708506520
  0.7480608076822222  0.5045380814194900  0.5417476378930388
  0.7490739996889815  0.7418160656554207  0.7457556605250133
  0.7490277410233261  0.9977465886054588  0.9623973082180228
  0.7500124873451313  0.5009437972074764  0.0298585353276835
  0.2519247762998518  0.9983576668537211  0.5355025556686854
  0.0357493474237884  0.2529624135030062  0.9971449607271268
  0.4656211510406578  0.7468088841921343  0.9961990731247781
  0.9628183234547123  0.2545988251133835  0.5038081767408116
  0.9998833558220426  0.9650015285974973  0.2502669997386775
  0.7492048742257609  0.9984348900479389  0.4674296630612318
  0.5011016542680693  0.0329329724966527  0.2516053716019542
  0.2512953431731262  0.5017932283390252  0.4694970345505780
  0.2501027636345512  0.5009867022800663  0.9605128962295737
  0.2520102243942048  0.7495321443207175  0.2518635678659962
  0.4677139036061035  0.2538870211909696  0.5036863817580723
  0.7498312802330815  0.2564392559889015  0.7493594083297097
  0.5345260888934789  0.2520030262264683  0.9977887737706226
  0.7497510276869548  0.2520080364540505  0.2519756780131530
  0.2498799457248140  0.2544465207863809  0.7486161517636347
  0.5018119893887274  0.5368614641873108  0.2530309459925846
  0.9993181348413742  0.0337088820605800  0.7500843823960750
  0.9984794965432684  0.4648376556357050  0.2516347310983846
  0.5025114946902036  0.9616438961546976  0.7481795017930182
  0.7493048734269792  0.7484241986528559  0.2525502267126001
  0.2500796128874825  0.2508684751645518  0.2503318540443118
  0.0316464363865379  0.7459480740364484  0.5039648138285600
  0.9639609715389739  0.7485125840955291  0.9954631658828674
  0.2502611817758194  0.9993769752104669  0.0340741516599152
  0.2515891873511791  0.7442813597769486  0.7477620152777575
 
  0.00000000E+00  0.00000000E+00  0.00000000E+00
  0.00000000E+00  0.00000000E+00  0.00000000E+00
  0.00000000E+00  0.00000000E+00  0.00000000E+00
  0.00000000E+00  0.00000000E+00  0.00000000E+00
  0.00000000E+00  0.00000000E+00  0.00000000E+00
  0.00000000E+00  0.00000000E+00  0.00000000E+00
  0.00000000E+00  0.00000000E+00  0.00000000E+00
  0.00000000E+00  0.00000000E+00  0.00000000E+00
  0.00000000E+00  0.00000000E+00  0.00000000E+00
  0.00000000E+00  0.00000000E+00  0.00000000E+00
  0.00000000E+00  0.00000000E+00  0.00000000E+00
  0.00000000E+00  0.00000000E+00  0.00000000E+00
  0.00000000E+00  0.00000000E+00  0.00000000E+00
  0.00000000E+00  0.00000000E+00  0.00000000E+00
  0.00000000E+00  0.00000000E+00  0.00000000E+00
  0.00000000E+00  0.00000000E+00  0.00000000E+00
  0.00000000E+00  0.00000000E+00  0.00000000E+00
  0.00000000E+00  0.00000000E+00  0.00000000E+00
  0.00000000E+00  0.00000000E+00  0.00000000E+00
  0.00000000E+00  0.00000000E+00  0.00000000E+00
  0.00000000E+00  0.00000000E+00  0.00000000E+00
  0.00000000E+00  0.00000000E+00  0.00000000E+00
  0.00000000E+00  0.00000000E+00  0.00000000E+00
  0.00000000E+00  0.00000000E+00  0.00000000E+00
  0.00000000E+00  0.00000000E+00  0.00000000E+00
  0.00000000E+00  0.00000000E+00  0.00000000E+00
  0.00000000E+00  0.00000000E+00  0.00000000E+00
  0.00000000E+00  0.00000000E+00  0.00000000E+00
  0.00000000E+00  0.00000000E+00  0.00000000E+00
  0.00000000E+00  0.00000000E+00  0.00000000E+00
  0.00000000E+00  0.00000000E+00  0.00000000E+00
  0.00000000E+00  0.00000000E+00  0.00000000E+00
  0.00000000E+00  0.00000000E+00  0.00000000E+00
  0.00000000E+00  0.00000000E+00  0.00000000E+00
  0.00000000E+00  0.00000000E+00  0.00000000E+00
  0.00000000E+00  0.00000000E+00  0.00000000E+00
  0.00000000E+00  0.00000000E+00  0.00000000E+00
  0.00000000E+00  0.00000000E+00  0.00000000E+00
  0.00000000E+00  0.00000000E+00  0.00000000E+00
  0.00000000E+00  0.00000000E+00  0.00000000E+00
  0.00000000E+00  0.00000000E+00  0.00000000E+00
  0.00000000E+00  0.00000000E+00  0.00000000E+00
  0.00000000E+00  0.00000000E+00  0.00000000E+00
  0.00000000E+00  0.00000000E+00  0.00000000E+00
  0.00000000E+00  0.00000000E+00  0.00000000E+00
  0.00000000E+00  0.00000000E+00  0.00000000E+00
  0.00000000E+00  0.00000000E+00  0.00000000E+00
  0.00000000E+00  0.00000000E+00  0.00000000E+00
  0.00000000E+00  0.00000000E+00  0.00000000E+00
  0.00000000E+00  0.00000000E+00  0.00000000E+00
  0.00000000E+00  0.00000000E+00  0.00000000E+00
  0.00000000E+00  0.00000000E+00  0.00000000E+00
  0.00000000E+00  0.00000000E+00  0.00000000E+00
  0.00000000E+00  0.00000000E+00  0.00000000E+00
  0.00000000E+00  0.00000000E+00  0.00000000E+00
  0.00000000E+00  0.00000000E+00  0.00000000E+00
  0.00000000E+00  0.00000000E+00  0.00000000E+00
  0.00000000E+00  0.00000000E+00  0.00000000E+00
  0.00000000E+00  0.00000000E+00  0.00000000E+00
  0.00000000E+00  0.00000000E+00  0.00000000E+00
  0.00000000E+00  0.00000000E+00  0.00000000E+00
  0.00000000E+00  0.00000000E+00  0.00000000E+00
  0.00000000E+00  0.00000000E+00  0.00000000E+00
  0.00000000E+00  0.00000000E+00  0.00000000E+00
  0.00000000E+00  0.00000000E+00  0.00000000E+00
  0.00000000E+00  0.00000000E+00  0.00000000E+00
  0.00000000E+00  0.00000000E+00  0.00000000E+00
  0.00000000E+00  0.00000000E+00  0.00000000E+00
  0.00000000E+00  0.00000000E+00  0.00000000E+00
  0.00000000E+00  0.00000000E+00  0.00000000E+00
  0.00000000E+00  0.00000000E+00  0.00000000E+00
  0.00000000E+00  0.00000000E+00  0.00000000E+00
  0.00000000E+00  0.00000000E+00  0.00000000E+00
  0.00000000E+00  0.00000000E+00  0.00000000E+00
  0.00000000E+00  0.00000000E+00  0.00000000E+00
  0.00000000E+00  0.00000000E+00  0.00000000E+00
  0.00000000E+00  0.00000000E+00  0.00000000E+00
  0.00000000E+00  0.00000000E+00  0.00000000E+00
  0.00000000E+00  0.00000000E+00  0.00000000E+00
  0.00000000E+00  0.00000000E+00  0.00000000E+00
